\ Model qkp
\ LP format - for model browsing. Use MPS format to capture full model detail.
Maximize
  38 x_2 + 7 x_3 + 6 x_4 + 30 x_5 + 36 x_7 + 39 x_8 + 38 x_9 + 43 x_12
   + 20 x_13 + 36 x_14 + 33 x_15 + 16 x_18 + 13 x_21 + 37 x_22 + 37 x_23
   + 33 x_24 + 24 x_25 + 43 x_26 + 10 x_27 + 46 x_28 + 18 x_29 + 44 x_30
   + 40 x_33 + 11 x_35 + 32 x_37 + 41 x_38 + 12 x_40 + 12 x_41 + 27 x_43
   + 25 x_44 + 31 x_45 + 45 x_46 + 13 x_48 + 18 x_49 + 12 x_50 + [
   24 x_1 * x_3 + 156 x_1 * x_7 + 52 x_1 * x_8 + 4 x_1 * x_9
   + 80 x_1 * x_11 + 12 x_1 * x_12 + 80 x_1 * x_13 + 56 x_1 * x_14
   + 56 x_1 * x_15 + 128 x_1 * x_16 + 4 x_1 * x_17 + 8 x_1 * x_18
   + 168 x_1 * x_20 + 60 x_1 * x_21 + 188 x_1 * x_22 + 12 x_1 * x_23
   + 132 x_1 * x_26 + 188 x_1 * x_27 + 132 x_1 * x_28 + 40 x_1 * x_30
   + 36 x_1 * x_32 + 156 x_1 * x_33 + 200 x_1 * x_34 + 64 x_1 * x_35
   + 96 x_1 * x_36 + 196 x_1 * x_38 + 68 x_1 * x_39 + 32 x_1 * x_40
   + 68 x_1 * x_41 + 60 x_1 * x_42 + 112 x_1 * x_45 + 156 x_1 * x_46
   + 48 x_1 * x_47 + 20 x_1 * x_48 + 40 x_1 * x_49 + 200 x_1 * x_50
   + 44 x_2 * x_3 + 68 x_2 * x_5 + 64 x_2 * x_6 + 156 x_2 * x_7
   + 16 x_2 * x_8 + 84 x_2 * x_9 + 12 x_2 * x_10 + 160 x_2 * x_11
   + 40 x_2 * x_12 + 192 x_2 * x_14 + 68 x_2 * x_16 + 172 x_2 * x_17
   + 4 x_2 * x_18 + 152 x_2 * x_19 + 32 x_2 * x_20 + 44 x_2 * x_21
   + 72 x_2 * x_23 + 84 x_2 * x_24 + 12 x_2 * x_25 + 28 x_2 * x_28
   + 100 x_2 * x_29 + 12 x_2 * x_30 + 120 x_2 * x_33 + 172 x_2 * x_36
   + 68 x_2 * x_38 + 124 x_2 * x_39 + 128 x_2 * x_41 + 44 x_2 * x_42
   + 32 x_2 * x_44 + 40 x_2 * x_45 + 64 x_2 * x_47 + 56 x_2 * x_48
   + 36 x_2 * x_49 + 132 x_2 * x_50 + 188 x_3 * x_5 + 56 x_3 * x_7
   + 84 x_3 * x_9 + 32 x_3 * x_10 + 52 x_3 * x_11 + 12 x_3 * x_12
   + 80 x_3 * x_13 + 68 x_3 * x_17 + 12 x_3 * x_18 + 36 x_3 * x_19
   + 160 x_3 * x_20 + 140 x_3 * x_22 + 156 x_3 * x_23 + 168 x_3 * x_25
   + 184 x_3 * x_26 + 100 x_3 * x_27 + 192 x_3 * x_29 + 140 x_3 * x_30
   + 156 x_3 * x_31 + 28 x_3 * x_33 + 120 x_3 * x_34 + 44 x_3 * x_36
   + 196 x_3 * x_37 + 132 x_3 * x_38 + 76 x_3 * x_40 + 76 x_3 * x_43
   + 108 x_3 * x_44 + 132 x_3 * x_45 + 168 x_3 * x_46 + 72 x_3 * x_47
   + 176 x_3 * x_48 + 76 x_3 * x_49 + 104 x_3 * x_50 + 140 x_4 * x_5
   + 176 x_4 * x_6 + 8 x_4 * x_7 + 52 x_4 * x_8 + 4 x_4 * x_9
   + 44 x_4 * x_10 + 196 x_4 * x_11 + 100 x_4 * x_12 + 60 x_4 * x_13
   + 16 x_4 * x_14 + 88 x_4 * x_17 + 16 x_4 * x_18 + 32 x_4 * x_19
   + 4 x_4 * x_20 + 112 x_4 * x_21 + 68 x_4 * x_22 + 36 x_4 * x_23
   + 68 x_4 * x_24 + 32 x_4 * x_26 + 108 x_4 * x_27 + 180 x_4 * x_29
   + 4 x_4 * x_30 + 24 x_4 * x_33 + 108 x_4 * x_34 + 4 x_4 * x_35
   + 112 x_4 * x_38 + 44 x_4 * x_39 + 44 x_4 * x_40 + 96 x_4 * x_42
   + 16 x_4 * x_44 + 148 x_4 * x_45 + 80 x_4 * x_47 + 104 x_4 * x_48
   + 160 x_4 * x_49 + 68 x_5 * x_6 + 72 x_5 * x_7 + 148 x_5 * x_8
   + 12 x_5 * x_10 + 104 x_5 * x_13 + 192 x_5 * x_14 + 96 x_5 * x_15
   + 28 x_5 * x_16 + 8 x_5 * x_17 + 44 x_5 * x_19 + 80 x_5 * x_21
   + 112 x_5 * x_22 + 184 x_5 * x_23 + 120 x_5 * x_27 + 124 x_5 * x_28
   + 116 x_5 * x_29 + 64 x_5 * x_30 + 60 x_5 * x_31 + 60 x_5 * x_32
   + 200 x_5 * x_33 + 188 x_5 * x_36 + 152 x_5 * x_37 + 40 x_5 * x_38
   + 16 x_5 * x_39 + 160 x_5 * x_41 + 176 x_5 * x_42 + 136 x_5 * x_43
   + 188 x_5 * x_44 + 188 x_5 * x_45 + 64 x_5 * x_46 + 136 x_5 * x_47
   + 48 x_5 * x_48 + 156 x_5 * x_49 + 168 x_6 * x_7 + 8 x_6 * x_9
   + 44 x_6 * x_10 + 24 x_6 * x_11 + 64 x_6 * x_12 + 196 x_6 * x_14
   + 28 x_6 * x_15 + 72 x_6 * x_17 + 36 x_6 * x_18 + 164 x_6 * x_19
   + 48 x_6 * x_20 + 128 x_6 * x_21 + 64 x_6 * x_25 + 196 x_6 * x_29
   + 188 x_6 * x_31 + 12 x_6 * x_32 + 120 x_6 * x_33 + 24 x_6 * x_34
   + 140 x_6 * x_35 + 24 x_6 * x_37 + 152 x_6 * x_39 + 100 x_6 * x_41
   + 20 x_6 * x_45 + 112 x_6 * x_46 + 132 x_6 * x_47 + 116 x_6 * x_48
   + 52 x_6 * x_49 + 136 x_6 * x_50 + 180 x_7 * x_9 + 136 x_7 * x_10
   + 80 x_7 * x_11 + 172 x_7 * x_12 + 188 x_7 * x_14 + 120 x_7 * x_15
   + 136 x_7 * x_16 + 40 x_7 * x_17 + 48 x_7 * x_18 + 200 x_7 * x_20
   + 20 x_7 * x_22 + 188 x_7 * x_23 + 36 x_7 * x_25 + 76 x_7 * x_26
   + 164 x_7 * x_27 + 172 x_7 * x_28 + 96 x_7 * x_29 + 156 x_7 * x_30
   + 120 x_7 * x_31 + 88 x_7 * x_32 + 88 x_7 * x_34 + 16 x_7 * x_35
   + 116 x_7 * x_36 + 168 x_7 * x_37 + 28 x_7 * x_38 + 4 x_7 * x_39
   + 4 x_7 * x_41 + 24 x_7 * x_42 + 180 x_7 * x_43 + 52 x_7 * x_44
   + 4 x_7 * x_46 + 140 x_7 * x_48 + 8 x_7 * x_49 + 148 x_8 * x_9
   + 64 x_8 * x_10 + 20 x_8 * x_11 + 124 x_8 * x_12 + 92 x_8 * x_13
   + 8 x_8 * x_14 + 148 x_8 * x_15 + 68 x_8 * x_16 + 108 x_8 * x_17
   + 116 x_8 * x_18 + 184 x_8 * x_20 + 20 x_8 * x_22 + 48 x_8 * x_23
   + 76 x_8 * x_24 + 84 x_8 * x_25 + 116 x_8 * x_26 + 136 x_8 * x_27
   + 180 x_8 * x_28 + 72 x_8 * x_29 + 112 x_8 * x_30 + 88 x_8 * x_32
   + 84 x_8 * x_33 + 184 x_8 * x_34 + 108 x_8 * x_36 + 148 x_8 * x_37
   + 160 x_8 * x_38 + 112 x_8 * x_39 + 92 x_8 * x_44 + 92 x_8 * x_45
   + 8 x_8 * x_46 + 156 x_8 * x_47 + 124 x_8 * x_48 + 160 x_8 * x_49
   + 12 x_8 * x_50 + 80 x_9 * x_10 + 64 x_9 * x_11 + 124 x_9 * x_12
   + 16 x_9 * x_13 + 184 x_9 * x_14 + 144 x_9 * x_15 + 112 x_9 * x_16
   + 8 x_9 * x_17 + 156 x_9 * x_20 + 16 x_9 * x_21 + 32 x_9 * x_23
   + 72 x_9 * x_25 + 136 x_9 * x_26 + 60 x_9 * x_27 + 20 x_9 * x_28
   + 196 x_9 * x_29 + 56 x_9 * x_32 + 136 x_9 * x_33 + 12 x_9 * x_34
   + 104 x_9 * x_35 + 60 x_9 * x_36 + 184 x_9 * x_37 + 28 x_9 * x_38
   + 164 x_9 * x_39 + 188 x_9 * x_41 + 144 x_9 * x_42 + 116 x_9 * x_43
   + 144 x_9 * x_44 + 176 x_9 * x_45 + 24 x_9 * x_46 + 196 x_9 * x_47
   + 76 x_9 * x_48 + 40 x_9 * x_49 + 12 x_9 * x_50 + 152 x_10 * x_11
   + 124 x_10 * x_13 + 176 x_10 * x_14 + 128 x_10 * x_15 + 156 x_10 * x_16
   + 188 x_10 * x_17 + 76 x_10 * x_18 + 76 x_10 * x_19 + 128 x_10 * x_20
   + 20 x_10 * x_22 + 136 x_10 * x_24 + 120 x_10 * x_25 + 96 x_10 * x_26
   + 200 x_10 * x_28 + 8 x_10 * x_29 + 132 x_10 * x_30 + 192 x_10 * x_31
   + 168 x_10 * x_32 + 64 x_10 * x_35 + 128 x_10 * x_36 + 4 x_10 * x_38
   + 120 x_10 * x_39 + 60 x_10 * x_40 + 176 x_10 * x_41 + 144 x_10 * x_42
   + 96 x_10 * x_44 + 44 x_10 * x_47 + 8 x_10 * x_49 + 52 x_11 * x_12
   + 144 x_11 * x_13 + 116 x_11 * x_14 + 196 x_11 * x_15 + 112 x_11 * x_16
   + 80 x_11 * x_18 + 72 x_11 * x_19 + 4 x_11 * x_20 + 188 x_11 * x_23
   + 132 x_11 * x_24 + 172 x_11 * x_25 + 52 x_11 * x_26 + 32 x_11 * x_27
   + 20 x_11 * x_30 + 132 x_11 * x_31 + 4 x_11 * x_32 + 12 x_11 * x_33
   + 120 x_11 * x_34 + 28 x_11 * x_35 + 128 x_11 * x_36 + 56 x_11 * x_39
   + 48 x_11 * x_40 + 192 x_11 * x_41 + 80 x_11 * x_42 + 20 x_11 * x_43
   + 120 x_11 * x_44 + 48 x_11 * x_45 + 80 x_11 * x_46 + 120 x_11 * x_47
   + 4 x_11 * x_48 + 88 x_11 * x_49 + 88 x_11 * x_50 + 68 x_12 * x_13
   + 144 x_12 * x_14 + 160 x_12 * x_15 + 20 x_12 * x_16 + 84 x_12 * x_17
   + 160 x_12 * x_18 + 44 x_12 * x_19 + 68 x_12 * x_20 + 84 x_12 * x_23
   + 168 x_12 * x_24 + 80 x_12 * x_25 + 180 x_12 * x_26 + 124 x_12 * x_27
   + 116 x_12 * x_28 + 192 x_12 * x_29 + 80 x_12 * x_30 + 56 x_12 * x_31
   + 152 x_12 * x_32 + 52 x_12 * x_33 + 172 x_12 * x_34 + 164 x_12 * x_35
   + 176 x_12 * x_36 + 64 x_12 * x_37 + 8 x_12 * x_38 + 12 x_12 * x_39
   + 12 x_12 * x_40 + 40 x_12 * x_41 + 12 x_12 * x_43 + 116 x_12 * x_44
   + 80 x_12 * x_47 + 76 x_12 * x_48 + 24 x_12 * x_50 + 148 x_13 * x_15
   + 152 x_13 * x_16 + 200 x_13 * x_17 + 96 x_13 * x_19 + 116 x_13 * x_20
   + 148 x_13 * x_22 + 36 x_13 * x_25 + 108 x_13 * x_26 + 140 x_13 * x_27
   + 100 x_13 * x_28 + 176 x_13 * x_29 + 192 x_13 * x_30 + 92 x_13 * x_31
   + 72 x_13 * x_32 + 104 x_13 * x_34 + 180 x_13 * x_35 + 20 x_13 * x_37
   + 164 x_13 * x_39 + 200 x_13 * x_40 + 200 x_13 * x_43 + 100 x_13 * x_45
   + 136 x_13 * x_46 + 140 x_13 * x_48 + 140 x_13 * x_49 + 52 x_14 * x_15
   + 92 x_14 * x_16 + 16 x_14 * x_17 + 116 x_14 * x_18 + 64 x_14 * x_20
   + 200 x_14 * x_21 + 84 x_14 * x_22 + 60 x_14 * x_23 + 100 x_14 * x_24
   + 20 x_14 * x_25 + 20 x_14 * x_26 + 116 x_14 * x_27 + 44 x_14 * x_28
   + 144 x_14 * x_29 + 160 x_14 * x_31 + 84 x_14 * x_33 + 152 x_14 * x_34
   + 164 x_14 * x_35 + 192 x_14 * x_37 + 120 x_14 * x_38 + 156 x_14 * x_39
   + 76 x_14 * x_40 + 44 x_14 * x_41 + 28 x_14 * x_42 + 164 x_14 * x_44
   + 96 x_14 * x_47 + 12 x_14 * x_49 + 16 x_14 * x_50 + 52 x_15 * x_16
   + 52 x_15 * x_17 + 200 x_15 * x_20 + 164 x_15 * x_21 + 76 x_15 * x_22
   + 152 x_15 * x_23 + 104 x_15 * x_24 + 132 x_15 * x_25 + 148 x_15 * x_26
   + 52 x_15 * x_27 + 16 x_15 * x_28 + 28 x_15 * x_30 + 36 x_15 * x_35
   + 116 x_15 * x_37 + 196 x_15 * x_38 + 108 x_15 * x_41 + 156 x_15 * x_42
   + 196 x_15 * x_43 + 24 x_15 * x_44 + 120 x_15 * x_46 + 20 x_15 * x_47
   + 184 x_15 * x_48 + 76 x_15 * x_49 + 4 x_15 * x_50 + 132 x_16 * x_17
   + 172 x_16 * x_18 + 48 x_16 * x_19 + 112 x_16 * x_20 + 116 x_16 * x_21
   + 152 x_16 * x_23 + 92 x_16 * x_25 + 92 x_16 * x_26 + 172 x_16 * x_27
   + 116 x_16 * x_31 + 92 x_16 * x_32 + 172 x_16 * x_33 + 32 x_16 * x_34
   + 16 x_16 * x_36 + 148 x_16 * x_37 + 116 x_16 * x_38 + 120 x_16 * x_39
   + 28 x_16 * x_40 + 116 x_16 * x_41 + 184 x_16 * x_42 + 56 x_16 * x_43
   + 184 x_16 * x_44 + 40 x_16 * x_46 + 44 x_16 * x_47 + 40 x_16 * x_48
   + 196 x_16 * x_49 + 148 x_16 * x_50 + 84 x_17 * x_18 + 200 x_17 * x_20
   + 196 x_17 * x_26 + 148 x_17 * x_27 + 76 x_17 * x_28 + 20 x_17 * x_29
   + 56 x_17 * x_32 + 120 x_17 * x_35 + 20 x_17 * x_37 + 180 x_17 * x_38
   + 184 x_17 * x_39 + 112 x_17 * x_40 + 72 x_17 * x_41 + 36 x_17 * x_42
   + 60 x_17 * x_43 + 108 x_17 * x_45 + 108 x_17 * x_49 + 44 x_17 * x_50
   + 88 x_18 * x_19 + 172 x_18 * x_22 + 60 x_18 * x_24 + 152 x_18 * x_25
   + 184 x_18 * x_27 + 108 x_18 * x_28 + 56 x_18 * x_29 + 148 x_18 * x_30
   + 24 x_18 * x_31 + 108 x_18 * x_32 + 100 x_18 * x_33 + 40 x_18 * x_35
   + 4 x_18 * x_37 + 200 x_18 * x_38 + 180 x_18 * x_39 + 4 x_18 * x_40
   + 96 x_18 * x_42 + 108 x_18 * x_43 + 152 x_18 * x_44 + 116 x_18 * x_45
   + 52 x_18 * x_46 + 76 x_18 * x_47 + 180 x_18 * x_49 + 8 x_18 * x_50
   + 52 x_19 * x_21 + 100 x_19 * x_22 + 148 x_19 * x_23 + 76 x_19 * x_25
   + 128 x_19 * x_27 + 48 x_19 * x_28 + 8 x_19 * x_29 + 64 x_19 * x_30
   + 72 x_19 * x_32 + 32 x_19 * x_33 + 192 x_19 * x_34 + 152 x_19 * x_35
   + 40 x_19 * x_36 + 188 x_19 * x_37 + 148 x_19 * x_38 + 176 x_19 * x_39
   + 112 x_19 * x_41 + 76 x_19 * x_42 + 144 x_19 * x_43 + 88 x_19 * x_44
   + 132 x_19 * x_45 + 40 x_19 * x_46 + 80 x_19 * x_48 + 200 x_19 * x_49
   + 56 x_19 * x_50 + 52 x_20 * x_22 + 88 x_20 * x_25 + 100 x_20 * x_26
   + 88 x_20 * x_27 + 168 x_20 * x_28 + 164 x_20 * x_29 + 76 x_20 * x_31
   + 40 x_20 * x_32 + 80 x_20 * x_33 + 76 x_20 * x_34 + 28 x_20 * x_36
   + 48 x_20 * x_37 + 168 x_20 * x_40 + 48 x_20 * x_41 + 188 x_20 * x_43
   + 20 x_20 * x_44 + 72 x_20 * x_46 + 84 x_20 * x_47 + 128 x_20 * x_48
   + 80 x_21 * x_22 + 104 x_21 * x_24 + 112 x_21 * x_25 + 104 x_21 * x_26
   + 172 x_21 * x_27 + 172 x_21 * x_28 + 88 x_21 * x_29 + 84 x_21 * x_30
   + 148 x_21 * x_32 + 144 x_21 * x_34 + 40 x_21 * x_35 + 60 x_21 * x_36
   + 84 x_21 * x_37 + 140 x_21 * x_38 + 80 x_21 * x_39 + 76 x_21 * x_40
   + 40 x_21 * x_41 + 200 x_21 * x_42 + 112 x_21 * x_43 + 12 x_21 * x_45
   + 68 x_21 * x_48 + 88 x_21 * x_49 + 180 x_21 * x_50 + 92 x_22 * x_24
   + 152 x_22 * x_25 + 68 x_22 * x_27 + 40 x_22 * x_28 + 152 x_22 * x_29
   + 120 x_22 * x_30 + 56 x_22 * x_32 + 152 x_22 * x_33 + 168 x_22 * x_34
   + 124 x_22 * x_35 + 96 x_22 * x_36 + 84 x_22 * x_37 + 24 x_22 * x_38
   + 72 x_22 * x_39 + 184 x_22 * x_40 + 164 x_22 * x_41 + 156 x_22 * x_42
   + 152 x_22 * x_43 + 136 x_22 * x_44 + 176 x_22 * x_45 + 96 x_22 * x_46
   + 68 x_22 * x_47 + 8 x_22 * x_48 + 116 x_22 * x_49 + 196 x_22 * x_50
   + 64 x_23 * x_24 + 32 x_23 * x_25 + 152 x_23 * x_26 + 96 x_23 * x_28
   + 56 x_23 * x_29 + 24 x_23 * x_30 + 152 x_23 * x_32 + 140 x_23 * x_33
   + 176 x_23 * x_34 + 68 x_23 * x_35 + 20 x_23 * x_36 + 148 x_23 * x_37
   + 40 x_23 * x_38 + 28 x_23 * x_39 + 16 x_23 * x_40 + 60 x_23 * x_41
   + 184 x_23 * x_42 + 8 x_23 * x_43 + 100 x_23 * x_44 + 180 x_23 * x_45
   + 172 x_23 * x_46 + 88 x_23 * x_47 + 16 x_23 * x_49 + 24 x_23 * x_50
   + 132 x_24 * x_25 + 68 x_24 * x_26 + 192 x_24 * x_27 + 80 x_24 * x_28
   + 136 x_24 * x_29 + 4 x_24 * x_31 + 36 x_24 * x_32 + 136 x_24 * x_33
   + 80 x_24 * x_34 + 116 x_24 * x_35 + 20 x_24 * x_36 + 84 x_24 * x_37
   + 52 x_24 * x_39 + 104 x_24 * x_40 + 140 x_24 * x_42 + 188 x_24 * x_43
   + 112 x_24 * x_44 + 160 x_24 * x_46 + 180 x_24 * x_47 + 192 x_24 * x_48
   + 52 x_24 * x_49 + 40 x_25 * x_26 + 4 x_25 * x_27 + 76 x_25 * x_28
   + 24 x_25 * x_30 + 196 x_25 * x_31 + 164 x_25 * x_32 + 4 x_25 * x_33
   + 136 x_25 * x_34 + 164 x_25 * x_36 + 16 x_25 * x_37 + 40 x_25 * x_38
   + 28 x_25 * x_39 + 180 x_25 * x_40 + 160 x_25 * x_41 + 196 x_25 * x_42
   + 8 x_25 * x_43 + 184 x_25 * x_45 + 176 x_25 * x_48 + 180 x_26 * x_27
   + 184 x_26 * x_29 + 136 x_26 * x_31 + 44 x_26 * x_33 + 184 x_26 * x_34
   + 132 x_26 * x_35 + 172 x_26 * x_36 + 140 x_26 * x_38 + 52 x_26 * x_39
   + 168 x_26 * x_40 + 92 x_26 * x_42 + 112 x_26 * x_43 + 156 x_26 * x_45
   + 36 x_26 * x_46 + 28 x_26 * x_48 + 152 x_26 * x_49 + 108 x_26 * x_50
   + 196 x_27 * x_31 + 144 x_27 * x_33 + 108 x_27 * x_35 + 28 x_27 * x_39
   + 128 x_27 * x_40 + 28 x_27 * x_41 + 104 x_27 * x_44 + 200 x_27 * x_45
   + 32 x_27 * x_46 + 136 x_27 * x_47 + 64 x_27 * x_48 + 172 x_27 * x_49
   + 180 x_27 * x_50 + 196 x_28 * x_29 + 24 x_28 * x_31 + 4 x_28 * x_32
   + 96 x_28 * x_33 + 56 x_28 * x_34 + 12 x_28 * x_36 + 160 x_28 * x_40
   + 112 x_28 * x_41 + 96 x_28 * x_42 + 136 x_28 * x_44 + 36 x_28 * x_45
   + 96 x_28 * x_47 + 8 x_28 * x_48 + 172 x_28 * x_49 + 116 x_28 * x_50
   + 80 x_29 * x_30 + 164 x_29 * x_31 + 160 x_29 * x_32 + 132 x_29 * x_33
   + 144 x_29 * x_35 + 140 x_29 * x_37 + 148 x_29 * x_38 + 168 x_29 * x_39
   + 196 x_29 * x_40 + 168 x_29 * x_42 + 84 x_29 * x_43 + 124 x_29 * x_44
   + 48 x_29 * x_45 + 32 x_29 * x_46 + 128 x_29 * x_48 + 136 x_29 * x_50
   + 76 x_30 * x_31 + 136 x_30 * x_32 + 176 x_30 * x_33 + 24 x_30 * x_34
   + 188 x_30 * x_36 + 176 x_30 * x_37 + 76 x_30 * x_38 + 64 x_30 * x_39
   + 184 x_30 * x_40 + 80 x_30 * x_41 + 152 x_30 * x_42 + 72 x_30 * x_43
   + 96 x_30 * x_44 + 32 x_30 * x_46 + 176 x_30 * x_47 + 100 x_30 * x_48
   + 12 x_30 * x_50 + 24 x_31 * x_32 + 36 x_31 * x_34 + 88 x_31 * x_37
   + 92 x_31 * x_39 + 12 x_31 * x_41 + 84 x_31 * x_42 + 140 x_31 * x_43
   + 184 x_31 * x_44 + 152 x_31 * x_46 + 20 x_31 * x_47 + 124 x_31 * x_48
   + 132 x_31 * x_49 + 44 x_31 * x_50 + 112 x_32 * x_34 + 24 x_32 * x_36
   + 96 x_32 * x_37 + 24 x_32 * x_39 + 188 x_32 * x_40 + 88 x_32 * x_41
   + 16 x_32 * x_43 + 20 x_32 * x_44 + 52 x_32 * x_45 + 16 x_32 * x_46
   + 44 x_32 * x_47 + 172 x_32 * x_49 + 140 x_32 * x_50 + 104 x_33 * x_35
   + 36 x_33 * x_36 + 168 x_33 * x_37 + 44 x_33 * x_38 + 132 x_33 * x_39
   + 172 x_33 * x_40 + 112 x_33 * x_41 + 100 x_33 * x_43 + 32 x_33 * x_44
   + 112 x_33 * x_45 + 168 x_33 * x_46 + 128 x_33 * x_48 + 56 x_33 * x_49
   + 132 x_33 * x_50 + 176 x_34 * x_35 + 52 x_34 * x_36 + 120 x_34 * x_37
   + 140 x_34 * x_38 + 92 x_34 * x_39 + 80 x_34 * x_40 + 56 x_34 * x_41
   + 144 x_34 * x_42 + 172 x_34 * x_43 + 176 x_34 * x_44 + 188 x_34 * x_46
   + 72 x_34 * x_47 + 152 x_34 * x_48 + 108 x_34 * x_49 + 8 x_34 * x_50
   + 8 x_35 * x_36 + 40 x_35 * x_37 + 172 x_35 * x_38 + 124 x_35 * x_39
   + 32 x_35 * x_40 + 16 x_35 * x_42 + 44 x_35 * x_43 + 144 x_35 * x_47
   + 84 x_35 * x_48 + 168 x_35 * x_49 + 44 x_35 * x_50 + 156 x_36 * x_38
   + 192 x_36 * x_39 + 64 x_36 * x_40 + 24 x_36 * x_41 + 136 x_36 * x_42
   + 160 x_36 * x_43 + 44 x_36 * x_46 + 184 x_36 * x_47 + 4 x_36 * x_48
   + 28 x_36 * x_49 + 188 x_36 * x_50 + 172 x_37 * x_38 + 8 x_37 * x_39
   + 188 x_37 * x_40 + 156 x_37 * x_41 + 68 x_37 * x_42 + 88 x_37 * x_43
   + 148 x_37 * x_44 + 172 x_37 * x_45 + 60 x_37 * x_47 + 32 x_37 * x_48
   + 108 x_37 * x_50 + 28 x_38 * x_39 + 16 x_38 * x_40 + 64 x_38 * x_41
   + 164 x_38 * x_42 + 84 x_38 * x_43 + 64 x_38 * x_44 + 180 x_38 * x_45
   + 116 x_38 * x_46 + 84 x_38 * x_47 + 68 x_38 * x_48 + 76 x_38 * x_49
   + 20 x_38 * x_50 + 116 x_39 * x_41 + 40 x_39 * x_42 + 172 x_39 * x_43
   + 112 x_39 * x_44 + 4 x_39 * x_45 + 144 x_39 * x_46 + 44 x_39 * x_47
   + 180 x_39 * x_48 + 124 x_39 * x_49 + 80 x_40 * x_41 + 84 x_40 * x_42
   + 124 x_40 * x_43 + 104 x_40 * x_45 + 48 x_40 * x_48 + 136 x_41 * x_44
   + 192 x_41 * x_45 + 152 x_41 * x_46 + 164 x_41 * x_47 + 24 x_41 * x_49
   + 196 x_41 * x_50 + 160 x_42 * x_44 + 188 x_42 * x_45 + 164 x_42 * x_46
   + 160 x_42 * x_47 + 24 x_42 * x_48 + 144 x_42 * x_49 + 196 x_42 * x_50
   + 92 x_43 * x_44 + 64 x_43 * x_46 + 32 x_43 * x_48 + 60 x_43 * x_49
   + 48 x_43 * x_50 + 80 x_44 * x_46 + 72 x_44 * x_47 + 28 x_44 * x_48
   + 32 x_44 * x_50 + 64 x_45 * x_46 + 56 x_45 * x_47 + 100 x_45 * x_48
   + 184 x_45 * x_49 + 76 x_45 * x_50 + 96 x_46 * x_47 + 172 x_46 * x_48
   + 108 x_46 * x_49 + 180 x_46 * x_50 + 180 x_47 * x_48 + 200 x_48 * x_49
   + 104 x_48 * x_50 ] / 2 
Subject To
 R0: 5 x_1 + 9 x_2 + 4 x_3 + 15 x_4 + 15 x_5 + 16 x_6 + 19 x_7 + 24 x_8
   + 23 x_9 + 10 x_10 + 22 x_11 + 14 x_12 + 6 x_13 + 10 x_14 + 14 x_15
   + 16 x_16 + 20 x_17 + 22 x_18 + 13 x_19 + 21 x_20 + 11 x_21 + 8 x_22
   + x_23 + 8 x_24 + 18 x_25 + 18 x_26 + 9 x_27 + 7 x_28 + 8 x_29 + 2 x_30
   + 6 x_31 + 2 x_32 + 18 x_33 + 6 x_34 + 14 x_35 + 12 x_36 + 18 x_37
   + 20 x_38 + 17 x_39 + 3 x_40 + 9 x_41 + 19 x_42 + 19 x_43 + 24 x_44
   + 23 x_45 + 21 x_46 + 15 x_47 + 22 x_48 + x_49 + 17 x_50 <= 366
Bounds
Binaries
 x_1 x_2 x_3 x_4 x_5 x_6 x_7 x_8 x_9 x_10 x_11 x_12 x_13 x_14 x_15 x_16
 x_17 x_18 x_19 x_20 x_21 x_22 x_23 x_24 x_25 x_26 x_27 x_28 x_29 x_30 x_31
 x_32 x_33 x_34 x_35 x_36 x_37 x_38 x_39 x_40 x_41 x_42 x_43 x_44 x_45 x_46
 x_47 x_48 x_49 x_50
End
